NAME : problem
TYPE : CVRP
DIMENSION : 21
EDGE_WEIGHT_TYPE : EUC_2D
CAPACITY : 30
NODE_COORD_SECTION
1 56024 24603
2 76624 25606
3 16918 67168
4 58090 35637
5 17491 15490
6 66072 89515
7 51448 46848
8 16804 28380
9 42410 12985
10 63015 9675
11 99500 97605
12 12368 37618
13 29996 64564
14 31882 88870
15 4316 69984
16 53428 45237
17 33709 32402
18 4071 34409
19 38817 31404
20 57336 60423
21 59344 21947
DEMAND_SECTION
1 0
2 5
3 8
4 2
5 5
6 1
7 4
8 9
9 4
10 7
11 8
12 3
13 4
14 1
15 9
16 4
17 9
18 2
19 2
20 4
21 9
DEPOT_SECTION
1
-1
EOF
